(set-logic QF_FPBV)
(set-option :produce-models true)
(set-info :source |Random FP created by PyMPF|)
(set-info :category random)
(set-info :status sat)
;; fp.from.sbv(BitVec 32)
(declare-const x (_ BitVec 32))
(assert (bvsge x #b01100001011111001011101000101100))
;; x should be 1635564076
(declare-const r Float32)
(assert (= r ((_ to_fp 8 24) RNA x)))
(assert (fp.geq r ((_ to_fp 8 24) #x4EC2F974)))
(check-sat)
(exit)
